p cnf 222 789
a 61 0
e 1 2 3 4 5 6 7 8 9 10 11 12 13 69 75 221 222 0
a 62 63 64 0
e 14 15 16 17 18 19 20 21 22 23 24 25 26 27 28 29 30 31 32 33 34 35 36 37 38 39 40 41 42 43 44 45 81 84 87 90 93 96 99 102 105 108 113 118 123 128 214 215 216 217 218 219 220 0
a 65 66 67 68 0
e 46 47 48 49 50 51 52 53 54 55 56 57 58 59 60 70 71 72 73 74 76 77 78 79 80 82 83 85 86 88 89 91 92 94 95 97 98 100 101 103 104 106 107 109 110 111 112 114 115 116 117 119 120 121 122 124 125 126 127 129 130 131 132 133 134 135 136 137 138 139 140 141 142 143 144 145 146 147 148 149 150 151 152 153 154 155 156 157 158 159 160 161 162 163 164 165 166 167 168 169 170 171 172 173 174 175 176 177 178 179 180 181 182 183 184 185 186 187 188 189 190 191 192 193 194 195 196 197 198 199 200 201 202 203 204 205 206 207 208 209 210 211 212 213 0
69 222 0
-69 -61 0
61 69 0
-221 -75 222 0
-222 75 0
-222 221 0
-75 -61 74 0
61 75 0
-74 75 0
-73 -72 -71 -70 -5 74 0
-74 70 0
-74 5 0
-74 71 0
-74 72 0
-74 73 0
-70 4 12 13 0
-4 70 0
-13 70 0
-12 70 0
-71 1 6 7 0
-1 71 0
-7 71 0
-6 71 0
-72 3 10 11 0
-3 72 0
-11 72 0
-10 72 0
-73 2 8 9 0
-2 73 0
-9 73 0
-8 73 0
-221 81 220 0
-81 221 0
-220 221 0
-80 -79 -78 -77 -76 81 0
-81 76 0
-81 77 0
-81 78 0
-81 79 0
-81 80 0
-76 -63 -62 -5 64 0
5 76 0
62 76 0
63 76 0
-64 76 0
-77 -64 -4 62 63 0
4 77 0
-62 77 0
-63 77 0
64 77 0
-78 -64 -62 -3 63 0
3 78 0
62 78 0
-63 78 0
64 78 0
-79 -64 -63 -2 62 0
2 79 0
-62 79 0
63 79 0
64 79 0
-80 -64 -63 -62 -1 0
1 80 0
62 80 0
63 80 0
64 80 0
-219 -218 -217 -216 -215 -214 -128 -123 -118 -113 -108 -105 -102 -99 -96 -93 -90 -87 -84 220 0
-220 84 0
-220 87 0
-220 90 0
-220 93 0
-220 96 0
-220 99 0
-220 102 0
-220 105 0
-220 108 0
-220 113 0
-220 118 0
-220 123 0
-220 128 0
-220 214 0
-220 215 0
-220 216 0
-220 217 0
-220 218 0
-220 219 0
-84 18 40 44 83 0
-83 84 0
-18 84 0
-44 84 0
-40 84 0
-83 -13 82 0
13 83 0
-82 83 0
1 2 3 4 5 82 0
-82 -5 0
-82 -4 0
-82 -3 0
-82 -2 0
-82 -1 0
-87 17 39 45 86 0
-86 87 0
-17 87 0
-45 87 0
-39 87 0
-86 -12 85 0
12 86 0
-85 86 0
1 2 3 4 5 85 0
-85 -5 0
-85 -4 0
-85 -3 0
-85 -2 0
-85 -1 0
-90 17 39 43 89 0
-89 90 0
-17 90 0
-43 90 0
-39 90 0
-89 -11 88 0
11 89 0
-88 89 0
1 2 3 4 5 88 0
-88 -5 0
-88 -4 0
-88 -3 0
-88 -2 0
-88 -1 0
-93 16 38 44 92 0
-92 93 0
-16 93 0
-44 93 0
-38 93 0
-92 -10 91 0
10 92 0
-91 92 0
1 2 3 4 5 91 0
-91 -5 0
-91 -4 0
-91 -3 0
-91 -2 0
-91 -1 0
-96 16 38 42 95 0
-95 96 0
-16 96 0
-42 96 0
-38 96 0
-95 -9 94 0
9 95 0
-94 95 0
1 2 3 4 5 94 0
-94 -5 0
-94 -4 0
-94 -3 0
-94 -2 0
-94 -1 0
-99 15 37 43 98 0
-98 99 0
-15 99 0
-43 99 0
-37 99 0
-98 -8 97 0
8 98 0
-97 98 0
1 2 3 4 5 97 0
-97 -5 0
-97 -4 0
-97 -3 0
-97 -2 0
-97 -1 0
-102 15 37 41 101 0
-101 102 0
-15 102 0
-41 102 0
-37 102 0
-101 -7 100 0
7 101 0
-100 101 0
1 2 3 4 5 100 0
-100 -5 0
-100 -4 0
-100 -3 0
-100 -2 0
-100 -1 0
-105 14 36 42 104 0
-104 105 0
-14 105 0
-42 105 0
-36 105 0
-104 -6 103 0
6 104 0
-103 104 0
1 2 3 4 5 103 0
-103 -5 0
-103 -4 0
-103 -3 0
-103 -2 0
-103 -1 0
-108 106 107 0
-106 108 0
-107 108 0
-106 -63 -62 64 0
62 106 0
63 106 0
-64 106 0
-42 -37 -32 107 0
-107 32 0
-107 37 0
-107 42 0
-113 109 110 111 112 0
-109 113 0
-110 113 0
-111 113 0
-112 113 0
-109 -64 62 63 0
-62 109 0
-63 109 0
64 109 0
-45 -39 -35 -25 110 0
-110 35 0
-110 25 0
-110 39 0
-110 45 0
-45 -44 -40 -39 -30 111 0
-111 30 0
-111 39 0
-111 45 0
-111 40 0
-111 44 0
-44 -40 -34 -26 112 0
-112 34 0
-112 26 0
-112 40 0
-112 44 0
-118 114 115 116 117 0
-114 118 0
-115 118 0
-116 118 0
-117 118 0
-114 -64 -62 63 0
62 114 0
-63 114 0
64 114 0
-44 -38 -34 -23 115 0
-115 34 0
-115 23 0
-115 38 0
-115 44 0
-44 -43 -39 -38 -29 116 0
-116 29 0
-116 38 0
-116 44 0
-116 39 0
-116 43 0
-43 -39 -33 -24 117 0
-117 33 0
-117 24 0
-117 39 0
-117 43 0
-123 119 120 121 122 0
-119 123 0
-120 123 0
-121 123 0
-122 123 0
-119 -64 -63 62 0
-62 119 0
63 119 0
64 119 0
-43 -37 -33 -21 120 0
-120 33 0
-120 21 0
-120 37 0
-120 43 0
-43 -42 -38 -37 -28 121 0
-121 28 0
-121 37 0
-121 43 0
-121 38 0
-121 42 0
-42 -38 -32 -22 122 0
-122 32 0
-122 22 0
-122 38 0
-122 42 0
-128 124 125 126 127 0
-124 128 0
-125 128 0
-126 128 0
-127 128 0
-124 -64 -63 -62 0
62 124 0
63 124 0
64 124 0
-42 -36 -32 -19 125 0
-125 32 0
-125 19 0
-125 36 0
-125 42 0
-42 -41 -37 -36 -27 126 0
-126 27 0
-126 36 0
-126 42 0
-126 37 0
-126 41 0
-41 -37 -31 -20 127 0
-127 31 0
-127 20 0
-127 37 0
-127 41 0
-214 142 213 0
-142 214 0
-213 214 0
-141 -140 -139 -138 -137 -136 -135 -134 -133 -132 -131 -130 -129 142 0
-142 129 0
-142 130 0
-142 131 0
-142 132 0
-142 133 0
-142 134 0
-142 135 0
-142 136 0
-142 137 0
-142 138 0
-142 139 0
-142 140 0
-142 141 0
-129 -66 -65 -26 67 68 0
26 129 0
65 129 0
66 129 0
-67 129 0
-68 129 0
-130 -67 -25 65 66 68 0
25 130 0
-65 130 0
-66 130 0
67 130 0
-68 130 0
-131 -67 -65 -24 66 68 0
24 131 0
65 131 0
-66 131 0
67 131 0
-68 131 0
-132 -67 -66 -23 65 68 0
23 132 0
-65 132 0
66 132 0
67 132 0
-68 132 0
-133 -67 -66 -65 -22 68 0
22 133 0
65 133 0
66 133 0
67 133 0
-68 133 0
-134 -68 -21 65 66 67 0
21 134 0
-65 134 0
-66 134 0
-67 134 0
68 134 0
-135 -68 -65 -20 66 67 0
20 135 0
65 135 0
-66 135 0
-67 135 0
68 135 0
-136 -68 -66 -19 65 67 0
19 136 0
-65 136 0
66 136 0
-67 136 0
68 136 0
-137 -68 -66 -65 -18 67 0
18 137 0
65 137 0
66 137 0
-67 137 0
68 137 0
-138 -68 -67 -17 65 66 0
17 138 0
-65 138 0
-66 138 0
67 138 0
68 138 0
-139 -68 -67 -65 -16 66 0
16 139 0
65 139 0
-66 139 0
67 139 0
68 139 0
-140 -68 -67 -66 -15 65 0
15 140 0
-65 140 0
66 140 0
67 140 0
68 140 0
-141 -68 -67 -66 -65 -14 0
14 141 0
65 141 0
66 141 0
67 141 0
68 141 0
-212 -211 -210 -209 -208 -207 -205 -203 -201 -199 -197 -194 -191 -188 -185 -182 -179 -176 -173 -169 -165 -161 -157 -154 -151 -148 -145 213 0
-213 145 0
-213 148 0
-213 151 0
-213 154 0
-213 157 0
-213 161 0
-213 165 0
-213 169 0
-213 173 0
-213 176 0
-213 179 0
-213 182 0
-213 185 0
-213 188 0
-213 191 0
-213 194 0
-213 197 0
-213 199 0
-213 201 0
-213 203 0
-213 205 0
-213 207 0
-213 208 0
-213 209 0
-213 210 0
-213 211 0
-213 212 0
-145 60 144 0
-144 145 0
-60 145 0
-144 -35 143 0
35 144 0
-143 144 0
14 15 16 17 18 19 20 21 22 23 24 25 26 143 0
-143 -26 0
-143 -25 0
-143 -24 0
-143 -23 0
-143 -22 0
-143 -21 0
-143 -20 0
-143 -19 0
-143 -18 0
-143 -17 0
-143 -16 0
-143 -15 0
-143 -14 0
-148 59 147 0
-147 148 0
-59 148 0
-147 -34 146 0
34 147 0
-146 147 0
14 15 16 17 18 19 20 21 22 23 24 25 26 146 0
-146 -26 0
-146 -25 0
-146 -24 0
-146 -23 0
-146 -22 0
-146 -21 0
-146 -20 0
-146 -19 0
-146 -18 0
-146 -17 0
-146 -16 0
-146 -15 0
-146 -14 0
-151 58 150 0
-150 151 0
-58 151 0
-150 -33 149 0
33 150 0
-149 150 0
14 15 16 17 18 19 20 21 22 23 24 25 26 149 0
-149 -26 0
-149 -25 0
-149 -24 0
-149 -23 0
-149 -22 0
-149 -21 0
-149 -20 0
-149 -19 0
-149 -18 0
-149 -17 0
-149 -16 0
-149 -15 0
-149 -14 0
-154 57 153 0
-153 154 0
-57 154 0
-153 -32 152 0
32 153 0
-152 153 0
14 15 16 17 18 19 20 21 22 23 24 25 26 152 0
-152 -26 0
-152 -25 0
-152 -24 0
-152 -23 0
-152 -22 0
-152 -21 0
-152 -20 0
-152 -19 0
-152 -18 0
-152 -17 0
-152 -16 0
-152 -15 0
-152 -14 0
-157 56 156 0
-156 157 0
-56 157 0
-156 -31 155 0
31 156 0
-155 156 0
14 15 16 17 18 19 20 21 22 23 24 25 26 155 0
-155 -26 0
-155 -25 0
-155 -24 0
-155 -23 0
-155 -22 0
-155 -21 0
-155 -20 0
-155 -19 0
-155 -18 0
-155 -17 0
-155 -16 0
-155 -15 0
-155 -14 0
-161 159 160 0
-159 161 0
-160 161 0
-159 -30 158 0
30 159 0
-158 159 0
14 15 16 17 18 19 20 21 22 23 24 25 26 158 0
-158 -26 0
-158 -25 0
-158 -24 0
-158 -23 0
-158 -22 0
-158 -21 0
-158 -20 0
-158 -19 0
-158 -18 0
-158 -17 0
-158 -16 0
-158 -15 0
-158 -14 0
-60 -59 160 0
-160 60 0
-160 59 0
-165 163 164 0
-163 165 0
-164 165 0
-163 -29 162 0
29 163 0
-162 163 0
14 15 16 17 18 19 20 21 22 23 24 25 26 162 0
-162 -26 0
-162 -25 0
-162 -24 0
-162 -23 0
-162 -22 0
-162 -21 0
-162 -20 0
-162 -19 0
-162 -18 0
-162 -17 0
-162 -16 0
-162 -15 0
-162 -14 0
-59 -58 164 0
-164 59 0
-164 58 0
-169 167 168 0
-167 169 0
-168 169 0
-167 -28 166 0
28 167 0
-166 167 0
14 15 16 17 18 19 20 21 22 23 24 25 26 166 0
-166 -26 0
-166 -25 0
-166 -24 0
-166 -23 0
-166 -22 0
-166 -21 0
-166 -20 0
-166 -19 0
-166 -18 0
-166 -17 0
-166 -16 0
-166 -15 0
-166 -14 0
-58 -57 168 0
-168 58 0
-168 57 0
-173 171 172 0
-171 173 0
-172 173 0
-171 -27 170 0
27 171 0
-170 171 0
14 15 16 17 18 19 20 21 22 23 24 25 26 170 0
-170 -26 0
-170 -25 0
-170 -24 0
-170 -23 0
-170 -22 0
-170 -21 0
-170 -20 0
-170 -19 0
-170 -18 0
-170 -17 0
-170 -16 0
-170 -15 0
-170 -14 0
-57 -56 172 0
-172 57 0
-172 56 0
-176 174 175 0
-174 176 0
-175 176 0
-174 -66 -65 67 68 0
65 174 0
66 174 0
-67 174 0
-68 174 0
-60 -54 -50 175 0
-175 50 0
-175 54 0
-175 60 0
-179 177 178 0
-177 179 0
-178 179 0
-177 -67 65 66 68 0
-65 177 0
-66 177 0
67 177 0
-68 177 0
-59 -55 -49 178 0
-178 49 0
-178 55 0
-178 59 0
-182 180 181 0
-180 182 0
-181 182 0
-180 -67 -65 66 68 0
65 180 0
-66 180 0
67 180 0
-68 180 0
-59 -53 -49 181 0
-181 49 0
-181 53 0
-181 59 0
-185 183 184 0
-183 185 0
-184 185 0
-183 -67 -66 65 68 0
-65 183 0
66 183 0
67 183 0
-68 183 0
-58 -54 -48 184 0
-184 48 0
-184 54 0
-184 58 0
-188 186 187 0
-186 188 0
-187 188 0
-186 -67 -66 -65 68 0
65 186 0
66 186 0
67 186 0
-68 186 0
-58 -52 -48 187 0
-187 48 0
-187 52 0
-187 58 0
-191 189 190 0
-189 191 0
-190 191 0
-189 -68 65 66 67 0
-65 189 0
-66 189 0
-67 189 0
68 189 0
-57 -53 -47 190 0
-190 47 0
-190 53 0
-190 57 0
-194 192 193 0
-192 194 0
-193 194 0
-192 -68 -65 66 67 0
65 192 0
-66 192 0
-67 192 0
68 192 0
-57 -51 -47 193 0
-193 47 0
-193 51 0
-193 57 0
-197 195 196 0
-195 197 0
-196 197 0
-195 -68 -66 65 67 0
-65 195 0
66 195 0
-67 195 0
68 195 0
-56 -52 -46 196 0
-196 46 0
-196 52 0
-196 56 0
-199 55 198 0
-198 199 0
-55 199 0
-198 -68 -66 -65 67 0
65 198 0
66 198 0
-67 198 0
68 198 0
-201 54 200 0
-200 201 0
-54 201 0
-200 -68 -67 65 66 0
-65 200 0
-66 200 0
67 200 0
68 200 0
-203 53 202 0
-202 203 0
-53 203 0
-202 -68 -67 -65 66 0
65 202 0
-66 202 0
67 202 0
68 202 0
-205 52 204 0
-204 205 0
-52 205 0
-204 -68 -67 -66 65 0
-65 204 0
66 204 0
67 204 0
68 204 0
-207 51 206 0
-206 207 0
-51 207 0
-206 -68 -67 -66 -65 0
65 206 0
66 206 0
67 206 0
68 206 0
-208 -60 -55 0
55 208 0
60 208 0
-209 -59 -54 0
54 209 0
59 209 0
-210 -58 -53 0
53 210 0
58 210 0
-211 -57 -52 0
52 211 0
57 211 0
-212 -56 -51 0
51 212 0
56 212 0
-215 -45 -40 0
40 215 0
45 215 0
-216 -44 -39 0
39 216 0
44 216 0
-217 -43 -38 0
38 217 0
43 217 0
-218 -42 -37 0
37 218 0
42 218 0
-219 -41 -36 0
36 219 0
41 219 0
